120
150
56
44
50
46
47
57
47
49
54
46
57
57
51
42
53
50
51
51
59
48
47
59
50
59
50
58
53
49
47
48
42
44
58
45
56
56
49
52
59
59
44
60
52
50
46
48
50
42
52
48
51
55
59
59
60
42
44
47
54
49
53
51
49
49
59
52
51
43
60
41
47
47
51
57
59
46
51
46
59
53
54
58
47
48
60
49
52
49
51
57
47
56
49
53
43
47
52
52
45
51
40
53
42
49
43
50
60
48
51
47
40
45
46
42
46
49
42
43
55
46
